SystemName          ZnP Pentamer
SystemLabel         znp_p
NumberOfAtoms       161
NumberOfSpecies     4

%block ChemicalSpeciesLabel
 1  6   C #Species index, atomic number, species label
 2  1   H
 3  7   N
 4  30  Zn
%endblock ChemicalSpeciesLabel

LatticeConstant    25.00 Ang
%block LatticeParameters
 5.5  1.0  1.0  90.  90.  90.
%endblock LatticeParameters

AtomCoorFormatOut   Ang

%block kgrid_Monkhorst_Pack
    1   0  0   0.0
    0   1  0   0.0
    0   0  1   0.0
%endblock kgrid_Monkhorst_Pack

PAO.BasisSize   DZP
#PAO.EnergyShift 0.001 Ry
XC.functional   GGA
XC.authors      PBE
MeshCutoff      200 Ry

BasisPressure  0.02 GPa
PAO.SplitNorm   .2301042

%block PAO.Basis
C     3   split    .5005208
 n=2   0   2   E  105.1250000  -.8497917
   6.0020833   0.00
 n=2   1   2   E  150.1250000  -.8997917
   7.0020833   0.00
 n=2   2   1   E   40.0937500  -.8184896
   4.9320833
%endblock PAO.Basis


%block PAO.Basis # Define Basis set
Zn 2 # Species label, number of l-shells
n=4 0 2 P 1 # n, l, Nzeta, Polarization, NzetaPol
0.0 0.0
n=3 2 2 # n, l, Nzeta
0.0 0.0
%endblock PAO.Basis

SpinPolarized  F
#FixSpin        F

WriteCoorXMol  T
WriteEigenvalues true
Write.OrbitalIndex true
SaveRho true

##########Conjugated-Gradient#######################
MD.TypeOfRun		CG
MD.Steps		500
MD.MaxForceTol      	0.01 eV/Ang
MD.MaxDispl		0.01 Ang
MD.VariableCell		False
####################################################


AtomicCoordinatesFormat    Ang
%block AtomicCoordinatesAndAtomicSpecies
50.06490236	12.52369618	12.55958638	4	1	Zn
51.47365955	15.34942005	12.55791735	1	2	C
50.08847941	15.97445717	12.55531288	1	3	C
51.70779301	13.98235344	12.55884507	3	4	N
52.88023367	16.03165249	12.55812219	1	5	C
48.69039000	15.36619360	12.55327773	1	6	C
53.18930871	13.76740905	12.55928373	1	7	C
53.95875912	15.04852257	12.55888606	1	8	C
48.44270586	14.01238072	12.55648815	3	9	N
47.28200131	16.05782853	12.54524849	1	10	C
53.92953668	12.51208532	12.55940834	1	11	C
46.94937531	13.79981524	12.54973425	1	12	C
46.20394174	15.08808809	12.54300244	1	13	C
53.18487401	11.25899419	12.55910478	1	14	C
46.26550477	12.53667739	12.54725786	1	15	C
51.70289324	11.05077728	12.55874119	3	16	N
53.94787009	9.97433947	12.55850273	1	17	C
46.94554219	11.27172078	12.54922875	1	18	C
51.45995048	9.68618967	12.55757239	1	19	C
52.86286726	8.99647285	12.55759019	1	20	C
48.43831689	11.05112427	12.55619451	3	21	N
46.19169357	9.98830240	12.54201167	1	22	C
50.06772755	9.07379848	12.55493960	1	23	C
48.67604531	9.69505970	12.55268634	1	24	C
47.26260677	9.01241945	12.54422299	1	25	C
50.09800122	17.07244279	12.55333842	2	26	H
53.03097787	17.11631703	12.55733356	2	27	H
47.13988242	17.14320652	12.54054085	2	28	H
45.01183994	15.22918188	12.53634591	2	29	H
45.05773912	12.53716391	12.54144508	2	30	H
53.00673514	7.91125654	12.55659236	2	31	H
44.99852655	9.85582582	12.53543029	2	32	H
50.06337566	7.97572795	12.55292097	2	33	H
47.11294122	7.92814474	12.53955027	2	34	H
59.41350880	12.50592769	12.55990706	4	35	Zn
60.81134806	15.33407727	12.55843362	1	36	C
59.41773397	15.94628695	12.55857573	1	37	C
61.05080174	13.96807391	12.55857997	3	38	N
62.21274040	16.02088716	12.55807891	1	39	C
58.02280235	15.33362873	12.55853125	1	40	C
62.53208740	13.75828281	12.55863159	1	41	C
63.29694887	15.03973501	12.55820252	1	42	C
57.77855217	13.96917031	12.55872132	3	43	N
56.62321052	16.02386076	12.55839127	1	44	C
63.27613736	12.50245737	12.55889845	1	45	C
56.29612309	13.76220103	12.55901742	1	46	C
55.53658686	15.04525717	12.55879735	1	47	C
62.52856864	11.24810672	12.55875590	1	48	C
55.54941808	12.50942109	12.55924779	1	49	C
61.04644668	11.04220444	12.55872848	3	50	N
63.28955949	9.96456342	12.55860208	1	51	C
56.29070570	11.25389371	12.55898064	1	52	C
60.80254861	9.67658897	12.55882613	1	53	C
62.20184127	8.98641791	12.55864210	1	54	C
57.77248968	11.04368291	12.55893327	3	55	N
55.52647235	9.97263493	12.55863559	1	56	C
59.40773262	9.06567925	12.55911591	1	57	C
58.01298184	9.67915598	12.55894379	1	58	C
56.61107139	8.99184091	12.55863397	1	59	C
59.41910321	17.04454837	12.55873536	2	60	H
62.35952665	17.10573615	12.55747216	2	61	H
56.47967504	17.10922796	12.55771725	2	62	H
62.34313309	7.90096827	12.55820307	2	63	H
59.40784759	7.96726167	12.55945462	2	64	H
56.46529963	7.90667821	12.55832252	2	65	H
68.75093734	12.49991773	12.56017292	4	66	Zn
70.14860575	15.33200773	12.55779212	1	67	C
68.75440107	15.94419844	12.55765264	1	68	C
70.38757699	13.96619916	12.55815074	3	69	N
71.54995924	16.01841748	12.55770030	1	70	C
67.36024283	15.33135675	12.55782347	1	71	C
71.86864699	13.75551802	12.55850340	1	72	C
72.63420941	15.03681181	12.55822432	1	73	C
67.11933691	13.96577194	12.55837728	3	74	N
65.96021938	16.01877345	12.55741905	1	75	C
72.61047771	12.49806622	12.55868447	1	76	C
65.63722318	13.75659286	12.55863089	1	77	C
64.87445262	15.03868643	12.55808445	1	78	C
71.86398536	11.24252964	12.55862815	1	79	C
64.89090097	12.50100739	12.55889158	1	80	C
70.38187998	11.03340914	12.55854180	3	81	N
72.62677928	9.96024078	12.55865711	1	82	C
65.63311025	11.24380433	12.55865997	1	83	C
70.14105508	9.66783143	12.55845746	1	84	C
71.54106753	8.98005845	12.55848216	1	85	C
67.11438192	11.03343312	12.55843654	3	86	N
64.86748421	9.96255196	12.55842318	1	87	C
68.74701928	9.05501156	12.55843522	1	88	C
67.35311719	9.66759920	12.55831064	1	89	C
65.95200054	8.98113837	12.55817816	1	90	C
68.75364915	17.04238784	12.55760317	2	91	H
71.69630074	17.10344372	12.55710671	2	92	H
65.81580353	17.10378580	12.55627845	2	93	H
71.68570792	7.89490825	12.55820056	2	94	H
68.74738321	7.95675898	12.55867719	2	95	H
65.80669025	7.89606517	12.55781623	2	96	H
78.08737548	12.49339133	12.55930240	4	97	Zn
79.48757474	15.31987539	12.55845878	1	98	C
78.09326732	15.93345793	12.55850519	1	99	C
79.72833810	13.95557899	12.55872599	3	100	N
80.88879722	16.00782887	12.55801966	1	101	C
76.69848611	15.32277830	12.55830911	1	102	C
81.21019136	13.74586393	12.55875071	1	103	C
81.97375705	15.02749295	12.55821756	1	104	C
76.45463658	13.95708977	12.55835716	3	105	N
75.29939259	16.01293447	12.55818093	1	106	C
81.95155238	12.49064489	12.55903994	1	107	C
74.97259486	13.75106197	12.55852464	1	108	C
74.21189588	15.03462715	12.55840402	1	109	C
81.20525871	11.23782127	12.55891836	1	110	C
74.22520510	12.49644992	12.55859822	1	111	C
79.72273343	11.03057793	12.55872885	3	112	N
81.96507518	9.95512539	12.55894798	1	113	C
74.96933600	11.24067692	12.55850328	1	114	C
79.47870777	9.66618724	12.55900141	1	115	C
80.87852179	8.97647834	12.55899669	1	116	C
76.45057580	11.03110613	12.55854028	3	117	N
74.20435101	9.95900547	12.55871933	1	118	C
78.08385767	9.05321375	12.55931359	1	119	C
76.69001414	9.66512971	12.55893322	1	120	C
75.28865915	8.97790923	12.55908567	1	121	C
78.09392579	17.03172322	12.55873399	2	122	H
81.03368972	17.09312241	12.55729796	2	123	H
75.15724354	17.09827403	12.55761118	2	124	H
81.02233154	7.89124680	12.55881203	2	125	H
78.08256601	7.95483026	12.56008760	2	126	H
75.14222165	7.89289498	12.55929380	2	127	H
87.43562838	12.47726123	12.56016758	4	128	Zn
88.82338989	15.30606991	12.55291642	1	129	C
87.43177036	15.92722579	12.55487639	1	130	C
89.06181778	13.94997151	12.55635016	3	131	N
90.23626195	15.98960204	12.54429473	1	132	C
86.03996545	15.31460311	12.55723397	1	133	C
90.55506638	13.73034805	12.54932552	1	134	C
91.30810336	15.01448280	12.54199885	1	135	C
85.79753919	13.95003688	12.55854030	3	136	N
84.63699900	16.00454798	12.55693207	1	137	C
91.23531822	12.46527716	12.54717449	1	138	C
84.31570962	13.74183541	12.55889146	1	139	C
83.55225541	15.02646477	12.55805583	1	140	C
90.55147575	11.20190647	12.54951568	1	141	C
83.57110957	12.48861863	12.55924093	1	142	C
89.05816207	10.98891773	12.55622716	3	143	N
91.29746838	9.91372073	12.54266721	1	144	C
84.31166065	11.23335711	12.55922576	1	145	C
88.81124272	9.63513141	12.55334254	1	146	C
90.21973491	8.94365857	12.54515877	1	147	C
85.79318083	11.01864516	12.55874079	3	148	N
83.54275293	9.95211598	12.55894061	1	149	C
87.41326037	9.02690300	12.55573655	1	150	C
86.02784821	9.65172829	12.55812837	1	151	C
84.62152800	8.96916912	12.55838356	1	152	C
87.43629522	17.02508364	12.55301823	2	153	H
90.38461638	17.07413911	12.53940719	2	154	H
92.50119487	15.14832931	12.53499708	2	155	H
84.49340665	17.08985940	12.55556060	2	156	H
92.44294439	12.46447194	12.54161264	2	157	H
92.48972033	9.77266773	12.53632950	2	158	H
90.36197998	7.85832430	12.54110599	2	159	H
87.40402097	7.92885858	12.55423450	2	160	H
84.47090638	7.88471610	12.55783574	2	161	H
%endblock AtomicCoordinatesAndAtomicSpecies