SystemName          ZnP Pentamer
SystemLabel         znp_p
NumberOfAtoms       161
NumberOfSpecies     4

%block ChemicalSpeciesLabel
 1  6   C #Species index, atomic number, species label
 2  1   H
 3  7   N
 4  30  Zn
%endblock ChemicalSpeciesLabel

LatticeConstant    25.00 Ang
%block LatticeParameters
 5.0  1.0  1.0  90.  90.  90.
%endblock LatticeParameters

AtomCoorFormatOut   Ang

%block kgrid_Monkhorst_Pack
    1   0  0   0.0
    0   1  0   0.0
    0   0  1   0.0
%endblock kgrid_Monkhorst_Pack

PAO.BasisSize   DZP
#PAO.EnergyShift 0.001 Ry
XC.functional   GGA
XC.authors      PBE
MeshCutoff      200 Ry

BasisPressure  0.02 GPa
PAO.SplitNorm   .2301042

%block PAO.Basis
C     3   split    .5005208
 n=2   0   2   E  105.1250000  -.8497917
   6.0020833   0.00
 n=2   1   2   E  150.1250000  -.8997917
   7.0020833   0.00
 n=2   2   1   E   40.0937500  -.8184896
   4.9320833
%endblock PAO.Basis

### BASIS SET
#User.basis            T
#PAO.SoftDefault       T           # Global soft-confinement options
#PAO.BasisType         split

%block PAO.Basis # Define Basis set
Zn 2 # Species label, number of l-shells
n=4 0 2 P 1 # n, l, Nzeta, Polarization, NzetaPol
0.0 0.0
n=3 2 2 # n, l, Nzeta
0.0 0.0
%endblock PAO.Basis

SpinPolarized  F
#FixSpin        F

WriteCoorXMol  T
WriteEigenvalues true
Write.OrbitalIndex true
#SaveRho true

#####################################################
#%block ProjectedDensityOfStates
#   -25.00   10.00   0.10   1000   eV
#%endblock ProjectedDensityOfStates
#####################################################

#####################################################
#%block LocalDensityOfStates
#	-4.7113	-4.7111	eV	#emenor, emayor, unidades
#%endblock LocalDensityOfStates
#####################################################

#####################################################
#%PDOS.kgrid_Monkhorst_Pack
#   1  0  0  0.0
#   0  1  0  0.0
#   0  0  1  0.0
#%end PDOS.kgrid_Monkhorst_Pack
#####################################################

#####################SUPERCELDA######################
#%block SuperCell
#1 0 0
#0 1 0
#0 0 1
#%endblock SuperCell
#####################################################

##########Conjugated-Gradient########################
#MD.TypeOfRun		CG
#MD.Steps		500
#MD.MaxForceTol      	0.01 eV/Ang
#MD.MaxDispl		0.01 Ang
#MD.VariableCell		False
#####################################################

############VERLET##############################
#MD.TypeOfRun         Verlet
#MD.Quench    T
#MD.LengthTimeStep   1 fs
#MD.InitialTimeStep  1
#MD.FinalTimeStep    150
#MD.MaxForceTol      0.01 eV/Ang
#WriteMDXmol        .true.
#WriteMDHistory     .true.
#DM.UseSaveDM true
#MD.UseSaveXV true
#################################################

#SCF.Mixer.Weight 0.10
#SCF.Mixer.Kick 50


AtomicCoordinatesFormat    Ang
%block AtomicCoordinatesAndAtomicSpecies
   45.51354760   12.52369618   12.55958638   4       1  Zn
   46.79423595   15.34942005   12.55791735   1       2  C
   45.53498128   15.97445717   12.55531288   1       3  C
   47.00708455   13.98235344   12.55884507   3       4  N
   48.07293970   16.03165249   12.55812219   1       5  C
   44.26399091   15.36619360   12.55327773   1       6  C
   48.35391701   13.76740905   12.55928373   1       7  C
   49.05341738   15.04852257   12.55888606   1       8  C
   44.03882351   14.01238072   12.55648815   3       9  N
   42.98363755   16.05782853   12.54524849   1      10  C
   49.02685153   12.51208532   12.55940834   1      11  C
   42.68125028   13.79981524   12.54973425   1      12  C
   42.00358340   15.08808809   12.54300244   1      13  C
   48.34988546   11.25899419   12.55910478   1      14  C
   42.05954979   12.53667739   12.54725786   1      15  C
   47.00263022   11.05077728   12.55874119   3      16  N
   49.04351826    9.97433947   12.55850273   1      17  C
   42.67776563   11.27172078   12.54922875   1      18  C
   46.78177316    9.68618967   12.55757239   1      19  C
   48.05715205    8.99647285   12.55759019   1      20  C
   44.03483354   11.05112427   12.55619451   3      21  N
   41.99244870    9.98830240   12.54201167   1      22  C
   45.51611595    9.07379848   12.55493960   1      23  C
   44.25095028    9.69505970   12.55268634   1      24  C
   42.96600615    9.01241945   12.54422299   1      25  C
   45.54363747   17.07244279   12.55333842   2      26  H
   48.20997988   17.11631703   12.55733356   2      27  H
   42.85443856   17.14320652   12.54054085   2      28  H
   40.91985449   15.22918188   12.53634591   2      29  H
   40.96158102   12.53716391   12.54144508   2      30  H
   48.18794104    7.91125654   12.55659236   2      31  H
   40.90775141    9.85582582   12.53543029   2      32  H
   45.51215969    7.97572795   12.55292097   2      33  H
   42.82994656    7.92814474   12.53955027   2      34  H
   54.01228073   12.50592769   12.55990706   4      35  Zn
   55.28304369   15.33407727   12.55843362   1      36  C
   54.01612179   15.94628695   12.55857573   1      37  C
   55.50072885   13.96807391   12.55857997   3      38  N
   56.55703673   16.02088716   12.55807891   1      39  C
   52.74800214   15.33362873   12.55853125   1      40  C
   56.84735218   13.75828281   12.55863159   1      41  C
   57.54268079   15.03973501   12.55820252   1      42  C
   52.52595652   13.96917031   12.55872132   3      43  N
   51.47564593   16.02386076   12.55839127   1      44  C
   57.52376124   12.50245737   12.55889845   1      45  C
   51.17829372   13.76220103   12.55901742   1      46  C
   50.48780624   15.04525717   12.55879735   1      47  C
   56.84415331   11.24810672   12.55875590   1      48  C
   50.49947098   12.50942109   12.55924779   1      49  C
   55.49676971   11.04220444   12.55872848   3      50  N
   57.53596317    9.96456342   12.55860208   1      51  C
   51.17336882   11.25389371   12.55898064   1      52  C
   55.27504419    9.67658897   12.55882613   1      53  C
   56.54712843    8.98641791   12.55864210   1      54  C
   52.52044516   11.04368291   12.55893327   3      55  N
   50.47861123    9.97263493   12.55863559   1      56  C
   54.00702965    9.06567925   12.55911591   1      57  C
   52.73907440    9.67915598   12.55894379   1      58  C
   51.46461035    8.99184091   12.55863397   1      59  C
   54.01736655   17.04454837   12.55873536   2      60  H
   56.69047877   17.10573615   12.55747216   2      61  H
   51.34515913   17.10922796   12.55771725   2      62  H
   56.67557554    7.90096827   12.55820307   2      63  H
   54.00713417    7.96726167   12.55945462   2      64  H
   51.33209057    7.90667821   12.55832252   2      65  H
   62.50085213   12.49991773   12.56017292   4      66  Zn
   63.77145977   15.33200773   12.55779212   1      67  C
   62.50400097   15.94419844   12.55765264   1      68  C
   63.98870635   13.96619916   12.55815074   3      69  N
   65.04541749   16.01841748   12.55770030   1      70  C
   61.23658439   15.33135675   12.55782347   1      71  C
   65.33513363   13.75551802   12.55850340   1      72  C
   66.03109946   15.03681181   12.55822432   1      73  C
   61.01757901   13.96577194   12.55837728   3      74  N
   59.96383580   16.01877345   12.55741905   1      75  C
   66.00952519   12.49806622   12.55868447   1      76  C
   59.67020289   13.75659286   12.55863089   1      77  C
   58.97677511   15.03868643   12.55808445   1      78  C
   65.33089578   11.24252964   12.55862815   1      79  C
   58.99172815   12.50100739   12.55889158   1      80  C
   63.98352725   11.03340914   12.55854180   3      81  N
   66.02434480    9.96024078   12.55865711   1      82  C
   59.66646386   11.24380433   12.55865997   1      83  C
   63.76459553    9.66783143   12.55845746   1      84  C
   65.03733412    8.98005845   12.55848216   1      85  C
   61.01307447   11.03343312   12.55843654   3      86  N
   58.97044019    9.96255196   12.55842318   1      87  C
   62.49729025    9.05501156   12.55843522   1      88  C
   61.23010654    9.66759920   12.55831064   1      89  C
   59.95636413    8.98113837   12.55817816   1      90  C
   62.50331741   17.04238784   12.55760317   2      91  H
   65.17845522   17.10344372   12.55710671   2      92  H
   59.83254866   17.10378580   12.55627845   2      93  H
   65.16882538    7.89490825   12.55820056   2      94  H
   62.49762110    7.95675898   12.55867719   2      95  H
   59.82426386    7.89606517   12.55781623   2      96  H
   70.98852316   12.49339133   12.55930240   4      97  Zn
   72.26143158   15.31987539   12.55845878   1      98  C
   70.99387938   15.93345793   12.55850519   1      99  C
   72.48030736   13.95557899   12.55872599   3     100  N
   73.53527020   16.00782887   12.55801966   1     101  C
   69.72589646   15.32277830   12.55830911   1     102  C
   73.82744669   13.74586393   12.55875071   1     103  C
   74.52159732   15.02749295   12.55821756   1     104  C
   69.50421507   13.95708977   12.55835716   3     105  N
   68.45399326   16.01293447   12.55818093   1     106  C
   74.50141125   12.49064489   12.55903994   1     107  C
   68.15690442   13.75106197   12.55852464   1     108  C
   67.46535989   15.03462715   12.55840402   1     109  C
   73.82296246   11.23782127   12.55891836   1     110  C
   67.47745918   12.49644992   12.55859822   1     111  C
   72.47521221   11.03057793   12.55872885   3     112  N
   74.51370471    9.95512539   12.55894798   1     113  C
   68.15394182   11.24067692   12.55850328   1     114  C
   72.25337070    9.66618724   12.55900141   1     115  C
   73.52592890    8.97647834   12.55899669   1     116  C
   69.50052345   11.03110613   12.55854028   3     117  N
   67.45850092    9.95900547   12.55871933   1     118  C
   70.98532515    9.05321375   12.55931359   1     119  C
   69.71819467    9.66512971   12.55893322   1     120  C
   68.44423559    8.97790923   12.55908567   1     121  C
   70.99447799   17.03172322   12.55873399   2     122  H
   73.66699065   17.09312241   12.55729796   2     123  H
   68.32476685   17.09827403   12.55761118   2     124  H
   73.65666504    7.89124680   12.55881203   2     125  H
   70.98415092    7.95483026   12.56008760   2     126  H
   68.31111059    7.89289498   12.55929380   2     127  H
   79.48693489   12.47726123   12.56016758   4     128  Zn
   80.74853626   15.30606991   12.55291642   1     129  C
   79.48342760   15.92722579   12.55487639   1     130  C
   80.96528889   13.94997151   12.55635016   3     131  N
   82.03296541   15.98960204   12.54429473   1     132  C
   78.21815041   15.31460311   12.55723397   1     133  C
   82.32278762   13.73034805   12.54932552   1     134  C
   83.00736669   15.01448280   12.54199885   1     135  C
   77.99776290   13.95003688   12.55854030   3     136  N
   76.94272636   16.00454798   12.55693207   1     137  C
   82.94119838   12.46527716   12.54717449   1     138  C
   76.65064511   13.74183541   12.55889146   1     139  C
   75.95659583   15.02646477   12.55805583   1     140  C
   82.31952341   11.20190647   12.54951568   1     141  C
   75.97373597   12.48861863   12.55924093   1     142  C
   80.96196552   10.98891773   12.55622716   3     143  N
   82.99769853    9.91372073   12.54266721   1     144  C
   76.64696423   11.23335711   12.55922576   1     145  C
   80.73749338    9.63513141   12.55334254   1     146  C
   82.01794083    8.94365857   12.54515877   1     147  C
   77.99380075   11.01864516   12.55874079   3     148  N
   75.94795721    9.95211598   12.55894061   1     149  C
   79.46660034    9.02690300   12.55573655   1     150  C
   78.20713474    9.65172829   12.55812837   1     151  C
   76.92866182    8.96916912   12.55838356   1     152  C
   79.48754111   17.02508364   12.55301823   2     153  H
   82.16783307   17.07413911   12.53940719   2     154  H
   84.09199534   15.14832931   12.53499708   2     155  H
   76.81218786   17.08985940   12.55556060   2     156  H
   84.03904035   12.46447194   12.54161264   2     157  H
   84.08156394    9.77266773   12.53632950   2     158  H
   82.14725453    7.85832430   12.54110599   2     159  H
   79.45820088    7.92885858   12.55423450   2     160  H
   76.79173307    7.88471610   12.55783574   2     161  H
%endblock AtomicCoordinatesAndAtomicSpecies
