SystemName          ZnP Pentamer
SystemLabel         znp_p
NumberOfAtoms       161
NumberOfSpecies     4

%block ChemicalSpeciesLabel
 1  6   C #Species index, atomic number, species label
 2  1   H
 3  7   N
 4  30  Zn
%endblock ChemicalSpeciesLabel

LatticeConstant    25.00 Ang
%block LatticeParameters
 5.25  1.0  1.0  90.  90.  90.
%endblock LatticeParameters

AtomCoorFormatOut   Ang

%block kgrid_Monkhorst_Pack
    1   0  0   0.0
    0   1  0   0.0
    0   0  1   0.0
%endblock kgrid_Monkhorst_Pack

PAO.BasisSize   DZP
#PAO.EnergyShift 0.001 Ry
XC.functional   GGA
XC.authors      PBE
MeshCutoff      200 Ry

BasisPressure  0.02 GPa
PAO.SplitNorm   .2301042

%block PAO.Basis
C     3   split    .5005208
 n=2   0   2   E  105.1250000  -.8497917
   6.0020833   0.00
 n=2   1   2   E  150.1250000  -.8997917
   7.0020833   0.00
 n=2   2   1   E   40.0937500  -.8184896
   4.9320833
%endblock PAO.Basis


%block PAO.Basis # Define Basis set
Zn 2 # Species label, number of l-shells
n=4 0 2 P 1 # n, l, Nzeta, Polarization, NzetaPol
0.0 0.0
n=3 2 2 # n, l, Nzeta
0.0 0.0
%endblock PAO.Basis

SpinPolarized  F
#FixSpin        F

WriteCoorXMol  T
WriteEigenvalues true
Write.OrbitalIndex true
SaveRho true

##########Conjugated-Gradient#######################
MD.TypeOfRun		CG
MD.Steps		500
MD.MaxForceTol      	0.01 eV/Ang
MD.MaxDispl		0.01 Ang
MD.VariableCell		False
####################################################


AtomicCoordinatesFormat    Ang
%block AtomicCoordinatesAndAtomicSpecies
47.78922498	12.52369618	12.55958638	4	1	Zn
49.13394775	15.34942005	12.55791735	1	2	C
47.81173034	15.97445717	12.55531288	1	3	C
49.35743878	13.98235344	12.55884507	3	4	N
50.47658669	16.03165249	12.55812219	1	5	C
46.47719046	15.36619360	12.55327773	1	6	C
50.77161286	13.76740905	12.55928373	1	7	C
51.50608825	15.04852257	12.55888606	1	8	C
46.24076469	14.01238072	12.55648815	3	9	N
45.13281943	16.05782853	12.54524849	1	10	C
51.47819411	12.51208532	12.55940834	1	11	C
44.81531279	13.79981524	12.54973425	1	12	C
44.10376257	15.08808809	12.54300244	1	13	C
50.76737973	11.25899419	12.55910478	1	14	C
44.16252728	12.53667739	12.54725786	1	15	C
49.35276173	11.05077728	12.55874119	3	16	N
51.49569417	9.97433947	12.55850273	1	17	C
44.81165391	11.27172078	12.54922875	1	18	C
49.12086182	9.68618967	12.55757239	1	19	C
50.46000965	8.99647285	12.55759019	1	20	C
46.23657522	11.05112427	12.55619451	3	21	N
44.09207114	9.98830240	12.54201167	1	22	C
47.79192175	9.07379848	12.55493960	1	23	C
46.46349779	9.69505970	12.55268634	1	24	C
45.11430646	9.01241945	12.54422299	1	25	C
47.82081934	17.07244279	12.55333842	2	26	H
50.62047887	17.11631703	12.55733356	2	27	H
44.99716049	17.14320652	12.54054085	2	28	H
42.96584721	15.22918188	12.53634591	2	29	H
43.00966007	12.53716391	12.54144508	2	30	H
50.59733809	7.91125654	12.55659236	2	31	H
42.95313898	9.85582582	12.53543029	2	32	H
47.78776767	7.97572795	12.55292097	2	33	H
44.97144389	7.92814474	12.53955027	2	34	H
56.71289477	12.50592769	12.55990706	4	35	Zn
58.04719587	15.33407727	12.55843362	1	36	C
56.71692788	15.94628695	12.55857573	1	37	C
58.27576529	13.96807391	12.55857997	3	38	N
59.38488857	16.02088716	12.55807891	1	39	C
55.38540225	15.33362873	12.55853125	1	40	C
59.68971979	13.75828281	12.55863159	1	41	C
60.41981483	15.03973501	12.55820252	1	42	C
55.15225435	13.96917031	12.55872132	3	43	N
54.04942823	16.02386076	12.55839127	1	44	C
60.39994930	12.50245737	12.55889845	1	45	C
53.73720841	13.76220103	12.55901742	1	46	C
53.01219655	15.04525717	12.55879735	1	47	C
59.68636098	11.24810672	12.55875590	1	48	C
53.02444453	12.50942109	12.55924779	1	49	C
58.27160820	11.04220444	12.55872848	3	50	N
60.41276133	9.96456342	12.55860208	1	51	C
53.73203726	11.25389371	12.55898064	1	52	C
58.03879640	9.67658897	12.55882613	1	53	C
59.37448485	8.98641791	12.55864210	1	54	C
55.14646742	11.04368291	12.55893327	3	55	N
53.00254179	9.97263493	12.55863559	1	56	C
56.70738113	9.06567925	12.55911591	1	57	C
55.37602812	9.67915598	12.55894379	1	58	C
54.03784087	8.99184091	12.55863397	1	59	C
56.71823488	17.04454837	12.55873536	2	60	H
59.52500271	17.10573615	12.55747216	2	61	H
53.91241709	17.10922796	12.55771725	2	62	H
59.50935432	7.90096827	12.55820307	2	63	H
56.70749088	7.96726167	12.55945462	2	64	H
53.89869510	7.90667821	12.55832252	2	65	H
65.62589474	12.49991773	12.56017292	4	66	Zn
66.96003276	15.33200773	12.55779212	1	67	C
65.62920102	15.94419844	12.55765264	1	68	C
67.18814167	13.96619916	12.55815074	3	69	N
68.29768836	16.01841748	12.55770030	1	70	C
64.29841361	15.33135675	12.55782347	1	71	C
68.60189031	13.75551802	12.55850340	1	72	C
69.33265443	15.03681181	12.55822432	1	73	C
64.06845796	13.96577194	12.55837728	3	74	N
62.96202759	16.01877345	12.55741905	1	75	C
69.31000145	12.49806622	12.55868447	1	76	C
62.65371303	13.75659286	12.55863089	1	77	C
61.92561387	15.03868643	12.55808445	1	78	C
68.59744057	11.24252964	12.55862815	1	79	C
61.94131456	12.50100739	12.55889158	1	80	C
67.18270361	11.03340914	12.55854180	3	81	N
69.32556204	9.96024078	12.55865711	1	82	C
62.64978705	11.24380433	12.55865997	1	83	C
66.95282531	9.66783143	12.55845746	1	84	C
68.28920083	8.98005845	12.55848216	1	85	C
64.06372819	11.03343312	12.55843654	3	86	N
61.91896220	9.96255196	12.55842318	1	87	C
65.62215476	9.05501156	12.55843522	1	88	C
64.29161187	9.66759920	12.55831064	1	89	C
62.95418234	8.98113837	12.55817816	1	90	C
65.62848328	17.04238784	12.55760317	2	91	H
68.43737798	17.10344372	12.55710671	2	92	H
62.82417609	17.10378580	12.55627845	2	93	H
68.42726665	7.89490825	12.55820056	2	94	H
65.62250216	7.95675898	12.55867719	2	95	H
62.81547705	7.89606517	12.55781623	2	96	H
74.53794932	12.49339133	12.55930240	4	97	Zn
75.87450316	15.31987539	12.55845878	1	98	C
74.54357335	15.93345793	12.55850519	1	99	C
76.10432273	13.95557899	12.55872599	3	100	N
77.21203371	16.00782887	12.55801966	1	101	C
73.21219128	15.32277830	12.55830911	1	102	C
77.51881902	13.74586393	12.55875071	1	103	C
78.24767719	15.02749295	12.55821756	1	104	C
72.97942582	13.95708977	12.55835716	3	105	N
71.87669292	16.01293447	12.55818093	1	106	C
78.22648181	12.49064489	12.55903994	1	107	C
71.56474964	13.75106197	12.55852464	1	108	C
70.83862788	15.03462715	12.55840402	1	109	C
77.51411058	11.23782127	12.55891836	1	110	C
70.85133214	12.49644992	12.55859822	1	111	C
76.09897282	11.03057793	12.55872885	3	112	N
78.23938995	9.95512539	12.55894798	1	113	C
71.56163891	11.24067692	12.55850328	1	114	C
75.86603924	9.66618724	12.55900141	1	115	C
77.20222535	8.97647834	12.55899669	1	116	C
72.97554962	11.03110613	12.55854028	3	117	N
70.83142597	9.95900547	12.55871933	1	118	C
74.53459141	9.05321375	12.55931359	1	119	C
73.20410440	9.66512971	12.55893322	1	120	C
71.86644737	8.97790923	12.55908567	1	121	C
74.54420189	17.03172322	12.55873399	2	122	H
77.35034018	17.09312241	12.55729796	2	123	H
71.74100519	17.09827403	12.55761118	2	124	H
77.33949829	7.89124680	12.55881203	2	125	H
74.53335847	7.95483026	12.56008760	2	126	H
71.72666612	7.89289498	12.55929380	2	127	H
83.46128163	12.47726123	12.56016758	4	128	Zn
84.78596307	15.30606991	12.55291642	1	129	C
83.45759898	15.92722579	12.55487639	1	130	C
85.01355333	13.94997151	12.55635016	3	131	N
86.13461368	15.98960204	12.54429473	1	132	C
82.12905793	15.31460311	12.55723397	1	133	C
86.43892700	13.73034805	12.54932552	1	134	C
87.15773502	15.01448280	12.54199885	1	135	C
81.89765105	13.95003688	12.55854030	3	136	N
80.78986268	16.00454798	12.55693207	1	137	C
87.08825830	12.46527716	12.54717449	1	138	C
80.48317737	13.74183541	12.55889146	1	139	C
79.75442562	15.02646477	12.55805583	1	140	C
86.43549958	11.20190647	12.54951568	1	141	C
79.77242277	12.48861863	12.55924093	1	142	C
85.01006380	10.98891773	12.55622716	3	143	N
87.14758346	9.91372073	12.54266721	1	144	C
80.47931244	11.23335711	12.55922576	1	145	C
84.77436805	9.63513141	12.55334254	1	146	C
86.11883787	8.94365857	12.54515877	1	147	C
81.89349079	11.01864516	12.55874079	3	148	N
79.74535507	9.95211598	12.55894061	1	149	C
83.43993036	9.02690300	12.55573655	1	150	C
82.11749148	9.65172829	12.55812837	1	151	C
80.77509491	8.96916912	12.55838356	1	152	C
83.46191817	17.02508364	12.55301823	2	153	H
86.27622472	17.07413911	12.53940719	2	154	H
88.29659511	15.14832931	12.53499708	2	155	H
80.65279725	17.08985940	12.55556060	2	156	H
88.24099237	12.46447194	12.54161264	2	157	H
88.28564214	9.77266773	12.53632950	2	158	H
86.25461726	7.85832430	12.54110599	2	159	H
83.43111092	7.92885858	12.55423450	2	160	H
80.63131972	7.88471610	12.55783574	2	161	H
%endblock AtomicCoordinatesAndAtomicSpecies