SystemName          ZnP Heptamer
SystemLabel         znp_h
NumberOfAtoms       223
NumberOfSpecies     4

%block ChemicalSpeciesLabel
 1  6   C #Species index, atomic number, species label
 2  1   H
 3  7   N
 4  30  Zn
%endblock ChemicalSpeciesLabel

LatticeConstant    25.00 Ang
%block LatticeParameters
 7.0  1.0  1.0  90.  90.  90.
%endblock LatticeParameters

AtomCoorFormatOut   Ang

%block kgrid_Monkhorst_Pack
    1   0  0   0.0
    0   1  0   0.0
    0   0  1   0.0
%endblock kgrid_Monkhorst_Pack

PAO.BasisSize   DZP
#PAO.EnergyShift 0.001 Ry
XC.functional   GGA
XC.authors      PBE
MeshCutoff      200 Ry

BasisPressure  0.02 GPa
PAO.SplitNorm   .2301042

%block PAO.Basis
C     3   split    .5005208
 n=2   0   2   E  105.1250000  -.8497917
   6.0020833   0.00
 n=2   1   2   E  150.1250000  -.8997917
   7.0020833   0.00
 n=2   2   1   E   40.0937500  -.8184896
   4.9320833
%endblock PAO.Basis

### BASIS SET
#User.basis            T
#PAO.SoftDefault       T           # Global soft-confinement options
#PAO.BasisType         split

%block PAO.Basis # Define Basis set
Zn 2 # Species label, number of l-shells
n=4 0 2 P 1 # n, l, Nzeta, Polarization, NzetaPol
0.0 0.0
n=3 2 2 # n, l, Nzeta
0.0 0.0
%endblock PAO.Basis

SpinPolarized  F
#FixSpin        F

WriteCoorXMol  T
WriteEigenvalues true
Write.OrbitalIndex true
SaveRho true

##########Conjugated-Gradient########################
MD.TypeOfRun		CG
MD.Steps		500
MD.MaxForceTol      	0.01 eV/Ang
MD.MaxDispl		0.01 Ang
MD.VariableCell		False
#####################################################

# SCF variables
#DM.MixSCF1   T
MaxSCFIterations      100           # Maximum number of SCF iter
DM.MixingWeight       0.15          # New DM amount for next SCF cycle
#DM.Tolerance          1.d-4         # Tolerance in maximum difference
#DM.UseSaveDM          true          # to use continuation files
#DM.NumberPulay        5

AtomicCoordinatesFormat    Ang
%block AtomicCoordinatesAndAtomicSpecies
   70.28164035   12.53671336   12.55820868   4       1  Zn
   71.56612296   15.35907944   12.55757188   1       2  C
   70.30627375   15.98376258   12.55618794   1       3  C
   71.77882082   13.99241617   12.55808289   3       4  N
   72.84581719   16.03985396   12.55775952   1       5  C
   69.03348895   15.37795331   12.55506576   1       6  C
   73.12492320   13.77512725   12.55841845   1       7  C
   73.82558279   15.05546418   12.55825114   1       8  C
   68.80406765   14.02532067   12.55658032   3       9  N
   67.75433848   16.07241283   12.55096793   1      10  C
   73.79679959   12.51861541   12.55848741   1      11  C
   67.44674254   13.81476058   12.55318879   1      12  C
   66.77184806   15.10488638   12.54980945   1      13  C
   73.11792972   11.26633151   12.55833198   1      14  C
   66.82466666   12.55127955   12.55184500   1      15  C
   71.77043664   11.06001995   12.55802194   3      16  N
   73.81083958    9.98091187   12.55816234   1      17  C
   67.44168156   11.28521420   12.55286571   1      18  C
   71.54794100    9.69576168   12.55751831   1      19  C
   72.82289035    9.00439210   12.55770435   1      20  C
   68.79841505   11.06372684   12.55658277   3      21  N
   66.75647625   10.00101156   12.54931688   1      22  C
   70.28099125    9.08586641   12.55620403   1      23  C
   69.01574362    9.70808731   12.55496403   1      24  C
   67.73055548    9.02525476   12.55071644   1      25  C
   70.31511355   17.08169913   12.55510106   2      26  H
   72.98376976   17.12415883   12.55736353   2      27  H
   67.62787786   17.15810221   12.54864304   2      28  H
   65.68840582   15.24903984   12.54658171   2      29  H
   65.72675279   12.55323314   12.54871885   2      30  H
   72.95309198    7.91902477   12.55736215   2      31  H
   65.67196516    9.86615478   12.54584044   2      32  H
   70.27570544    7.98785128   12.55523231   2      33  H
   67.59396149    7.94084391   12.54862163   2      34  H
   78.78260691   12.50383549   12.55788200   4      35  Zn
   80.05400171   15.33110930   12.55765739   1      36  C
   78.78869434   15.94567558   12.55769608   1      37  C
   80.27165755   13.96460363   12.55782214   3      38  N
   81.32732287   16.01768692   12.55749112   1      39  C
   77.51996880   15.33553897   12.55791588   1      40  C
   81.61775674   13.75478050   12.55775463   1      41  C
   82.31255406   15.03631035   12.55757966   1      42  C
   77.29775567   13.97153372   12.55803659   3      43  N
   76.24883317   16.02711162   12.55801245   1      44  C
   82.29427875   12.49838319   12.55779538   1      45  C
   75.94969058   13.76604642   12.55824858   1      46  C
   75.25990283   15.04980810   12.55821849   1      47  C
   81.61482608   11.24328746   12.55772820   1      48  C
   75.26933157   12.51390033   12.55835664   1      49  C
   80.26786595   11.03804686   12.55775217   3      50  N
   82.30610205    9.95936790   12.55751472   1      51  C
   75.94278365   11.25767310   12.55817237   1      52  C
   80.04421922    9.67283131   12.55753236   1      53  C
   81.31622457    8.98170248   12.55737643   1      54  C
   77.29020623   11.04533792   12.55792702   3      55  N
   75.24644363    9.97729499   12.55809352   1      56  C
   78.77444105    9.06526009   12.55749339   1      57  C
   77.50708235    9.68065238   12.55770483   1      58  C
   76.23175236    8.99530588   12.55777210   1      59  C
   78.79088342   17.04379913   12.55755635   2      60  H
   81.46000555   17.10265111   12.55735781   2      61  H
   76.12044567   17.11252205   12.55793197   2      62  H
   81.44526782    7.89623176   12.55717862   2      63  H
   78.77107233    7.96700357   12.55729927   2      64  H
   76.09923549    7.91030503   12.55759580   2      65  H
   87.27063825   12.49533653   12.55785566   4      66  Zn
   88.53658059   15.33113607   12.55748687   1      67  C
   87.26990448   15.94288739   12.55735880   1      68  C
   88.75372003   13.96482456   12.55781170   3      69  N
   89.80870092   16.01835793   12.55728459   1      70  C
   86.00388606   15.32864492   12.55750589   1      71  C
   90.10019011   13.75555966   12.55779818   1      72  C
   90.79494693   15.03732391   12.55749187   1      73  C
   85.78668808   13.96239706   12.55774653   3      74  N
   84.73192363   16.01589406   12.55739539   1      75  C
   90.77759021   12.49833155   12.55790795   1      76  C
   84.43971588   13.75314488   12.55775918   1      77  C
   83.74588721   15.03493580   12.55756729   1      78  C
   90.10041749   11.24083796   12.55780062   1      79  C
   83.76103498   12.49718426   12.55781369   1      80  C
   88.75396206   11.03070253   12.55782954   3      81  N
   90.79500190    9.95930595   12.55748259   1      82  C
   84.43627430   11.23967296   12.55776407   1      83  C
   88.53593130    9.66446118   12.55750307   1      84  C
   89.80876903    8.97789357   12.55727072   1      85  C
   85.78295293   11.03017469   12.55778976   3      86  N
   83.74084434    9.95814223   12.55752228   1      87  C
   87.26858419    9.05223141   12.55740192   1      88  C
   86.00075637    9.66426171   12.55752257   1      89  C
   84.72780025    8.97727600   12.55733264   1      90  C
   87.26861868   17.04107112   12.55707326   2      91  H
   89.93983216   17.10346114   12.55700346   2      92  H
   84.60034055   17.10105180   12.55721802   2      93  H
   89.94120430    7.89290058   12.55699812   2      94  H
   87.26918716    7.95397164   12.55715747   2      95  H
   84.59655242    7.89217178   12.55707944   2      96  H
   95.75540696   12.49878018   12.55807454   4      97  Zn
   97.02292082   15.32788553   12.55724747   1      98  C
   95.75546290   15.93967839   12.55701105   1      99  C
   97.24293077   13.96170664   12.55780756   3     100  N
   98.29428666   16.01681300   12.55687374   1     101  C
   94.48755505   15.32882418   12.55730739   1     102  C
   98.58905473   13.75500489   12.55774551   1     103  C
   99.28236387   15.03725463   12.55723999   1     104  C
   94.26744591   13.96277415   12.55778324   3     105  N
   93.21594814   16.01763114   12.55709085   1     106  C
   99.26732044   12.49883207   12.55788380   1     107  C
   92.92117510   13.75535351   12.55781071   1     108  C
   92.22841008   15.03749199   12.55745099   1     109  C
   98.58935295   11.24236650   12.55771446   1     110  C
   92.24302715   12.49879539   12.55793564   1     111  C
   97.24323356   11.03512164   12.55771596   3     112  N
   99.28311400    9.96027945   12.55717575   1     113  C
   92.92135971   11.24240878   12.55781696   1     114  C
   97.02357566    9.66897148   12.55714130   1     115  C
   98.29528106    8.98033248   12.55673101   1     116  C
   94.26770524   11.03517842   12.55778331   3     117  N
   92.22871161    9.96008128   12.55746219   1     118  C
   95.75583046    9.05779138   12.55696888   1     119  C
   94.48805972    9.66913803   12.55730479   1     120  C
   93.21656627    8.98034007   12.55710312   1     121  C
   95.75586896   17.03796344   12.55649029   2     122  H
   98.42391912   17.10207066   12.55634612   2     123  H
   93.08520524   17.10291124   12.55672980   2     124  H
   98.42534564    7.89510111   12.55619104   2     125  H
   95.75541391    7.95954367   12.55651599   2     126  H
   93.08590991    7.89511524   12.55670105   2     127  H
  104.24493200   12.50119268   12.55791466   4     128  Zn
  105.51357323   15.33018773   12.55734602   1     129  C
  104.24443238   15.94031763   12.55699051   1     130  C
  105.73484410   13.96465729   12.55779937   3     131  N
  106.78573856   16.01974168   12.55718292   1     132  C
  102.97608679   15.32932746   12.55717358   1     133  C
  107.08101368   13.75816835   12.55786998   1     134  C
  107.77435822   15.04049286   12.55753378   1     135  C
  102.75520808   13.96315961   12.55778061   3     136  N
  101.70377486   16.01787480   12.55681840   1     137  C
  107.75818583   12.50223201   12.55794473   1     138  C
  101.40949553   13.75571472   12.55773615   1     139  C
  100.71609331   15.03782267   12.55721683   1     140  C
  107.08050598   11.24622590   12.55780478   1     141  C
  100.73177375   12.49924671   12.55789476   1     142  C
  105.73450061   11.03847850   12.55771889   3     143  N
  107.77361427    9.96418374   12.55739767   1     144  C
  101.40979839   11.24302525   12.55775624   1     145  C
  105.51395727    9.67259416   12.55718309   1     146  C
  106.78605979    8.98411911   12.55695860   1     147  C
  102.75561428   11.03685898   12.55776945   3     148  N
  100.71696513    9.96039560   12.55722175   1     149  C
  104.24579441    9.06087648   12.55686994   1     150  C
  102.97720607    9.67085271   12.55715243   1     151  C
  101.70555074    8.98122116   12.55680535   1     152  C
  104.24415140   17.03870004   12.55650334   2     153  H
  106.91640297   17.10507487   12.55682369   2     154  H
  101.57136712   17.10291268   12.55631516   2     155  H
  106.91842472    7.89912336   12.55646300   2     156  H
  104.24719559    7.96247487   12.55629575   2     157  H
  101.57512938    7.89598503   12.55623029   2     158  H
  112.73447161   12.50003048   12.55780037   4     159  Zn
  114.00577398   15.32563938   12.55768032   1     160  C
  112.73816182   15.93977303   12.55736391   1     161  C
  114.22474316   13.96096331   12.55789376   3     162  N
  115.27966480   16.01314793   12.55778915   1     163  C
  111.46975152   15.33006133   12.55748496   1     164  C
  115.57207081   13.75120877   12.55810093   1     165  C
  116.26573996   15.03255980   12.55810463   1     166  C
  111.24848977   13.96430920   12.55778760   3     167  N
  110.19730013   16.01964349   12.55732854   1     168  C
  116.24768822   12.49662046   12.55812173   1     169  C
  109.90215395   13.75779851   12.55776356   1     170  C
  109.20877149   15.04078187   12.55752328   1     171  C
  115.57037536   11.24300012   12.55809821   1     172  C
  109.22403791   12.50211405   12.55786614   1     173  C
  114.22263727   11.03553743   12.55786082   3     174  N
  116.26232150    9.96034582   12.55805091   1     175  C
  109.90149215   11.24619413   12.55773487   1     176  C
  114.00211809    9.67099986   12.55757599   1     177  C
  115.27468644    8.98138253   12.55767888   1     178  C
  111.24764174   11.03845903   12.55776344   3     179  N
  109.20732857    9.96390777   12.55739605   1     180  C
  112.73366465    9.05950102   12.55723783   1     181  C
  111.46720487    9.67242668   12.55738441   1     182  C
  110.19464541    8.98426551   12.55714069   1     183  C
  112.73963899   17.03802717   12.55690237   2     184  H
  115.41215839   17.09827707   12.55746664   2     185  H
  110.06782814   17.10494076   12.55711818   2     186  H
  115.40462780    7.89604368   12.55729336   2     187  H
  112.73160498    7.96122518   12.55675206   2     188  H
  110.06503753    7.89922166   12.55685655   2     189  H
  121.23395587   12.49454168   12.55722184   4     190  Zn
  122.49079384   15.32814649   12.55717187   1     191  C
  121.22312594   15.94357652   12.55765131   1     192  C
  122.71056875   13.97262577   12.55766501   3     193  N
  123.77320440   16.01549470   12.55523575   1     194  C
  119.96105352   15.32508543   12.55812543   1     195  C
  124.06848734   13.75704925   12.55576134   1     196  C
  124.75003649   15.04276885   12.55434295   1     197  C
  119.74493209   13.95914044   12.55793782   3     198  N
  118.68460829   16.01187112   12.55840475   1     199  C
  124.68836132   12.49311616   12.55507080   1     200  C
  118.39699730   13.74879493   12.55795577   1     201  C
  117.70069982   15.03189072   12.55817480   1     202  C
  124.06688291   11.22998168   12.55551203   1     203  C
  117.72004447   12.49546681   12.55795539   1     204  C
  122.70855441   11.01561137   12.55745583   3     205  N
  124.74693175    9.94328452   12.55395829   1     206  C
  118.39487053   11.24117399   12.55793019   1     207  C
  122.48723022    9.66026623   12.55673156   1     208  C
  123.76907035    8.97166605   12.55475003   1     209  C
  119.74251745   11.02962033   12.55786938   3     210  N
  117.69724384    9.95863874   12.55811354   1     211  C
  121.21941357    9.04495680   12.55726004   1     212  C
  119.95742880    9.66365222   12.55797003   1     213  C
  118.68047705    8.97794756   12.55830721   1     214  C
  121.22044585   17.04135532   12.55712833   2     215  H
  123.90497716   17.10043060   12.55460910   2     216  H
  118.55234110   17.09701622   12.55899546   2     217  H
  123.90041489    7.88650810   12.55413196   2     218  H
  121.21733303    7.94709525   12.55662454   2     219  H
  118.54781083    7.89312369   12.55887165   2     220  H
  125.83439974   15.17911681   12.55256136   2     221  H
  125.78617215   12.49213055   12.55359488   2     222  H
  125.83089095    9.80385623   12.55233576   2     223  H
%endblock AtomicCoordinatesAndAtomicSpecies
