SystemName          ZnP Heptamer
SystemLabel         znp_h
NumberOfAtoms       223
NumberOfSpecies     4

%block ChemicalSpeciesLabel
 1  6   C #Species index, atomic number, species label
 2  1   H
 3  7   N
 4  30  Zn
%endblock ChemicalSpeciesLabel

LatticeConstant    25.00 Ang
%block LatticeParameters
 7.35  1.0  1.0  90.  90.  90.
%endblock LatticeParameters

AtomCoorFormatOut   Ang

%block kgrid_Monkhorst_Pack
    1   0  0   0.0
    0   1  0   0.0
    0   0  1   0.0
%endblock kgrid_Monkhorst_Pack

PAO.BasisSize   DZP
#PAO.EnergyShift 0.001 Ry
XC.functional   GGA
XC.authors      PBE
MeshCutoff      200 Ry

BasisPressure  0.02 GPa
PAO.SplitNorm   .2301042

%block PAO.Basis
C     3   split    .5005208
 n=2   0   2   E  105.1250000  -.8497917
   6.0020833   0.00
 n=2   1   2   E  150.1250000  -.8997917
   7.0020833   0.00
 n=2   2   1   E   40.0937500  -.8184896
   4.9320833
%endblock PAO.Basis

### BASIS SET
#User.basis            T
#PAO.SoftDefault       T           # Global soft-confinement options
#PAO.BasisType         split

%block PAO.Basis # Define Basis set
Zn 2 # Species label, number of l-shells
n=4 0 2 P 1 # n, l, Nzeta, Polarization, NzetaPol
0.0 0.0
n=3 2 2 # n, l, Nzeta
0.0 0.0
%endblock PAO.Basis

SpinPolarized  F
#FixSpin        F

WriteCoorXMol  T
WriteEigenvalues true
Write.OrbitalIndex true
SaveRho true

##########Conjugated-Gradient########################
MD.TypeOfRun		CG
MD.Steps		500
MD.MaxForceTol      	0.01 eV/Ang
MD.MaxDispl		0.01 Ang
MD.VariableCell		False
#####################################################

# SCF variables
#DM.MixSCF1   T
MaxSCFIterations      100           # Maximum number of SCF iter
DM.MixingWeight       0.15          # New DM amount for next SCF cycle
#DM.Tolerance          1.d-4         # Tolerance in maximum difference
#DM.UseSaveDM          true          # to use continuation files
#DM.NumberPulay        5

AtomicCoordinatesFormat    Ang
%block AtomicCoordinatesAndAtomicSpecies
73.79572237	12.53671336	12.55820868	4	1	Zn
75.14442911	15.35907944	12.55757188	1	2	C
73.82158744	15.98376258	12.55618794	1	3	C
75.36776186	13.99241617	12.55808289	3	4	N
76.48810805	16.03985396	12.55775952	1	5	C
72.48516340	15.37795331	12.55506576	1	6	C
76.78116936	13.77512725	12.55841845	1	7	C
77.51686193	15.05546418	12.55825114	1	8	C
72.24427103	14.02532067	12.55658032	3	9	N
71.14205540	16.07241283	12.55096793	1	10	C
77.48663957	12.51861541	12.55848741	1	11	C
70.81907967	13.81476058	12.55318879	1	12	C
70.11044046	15.10488638	12.54980945	1	13	C
76.77382621	11.26633151	12.55833198	1	14	C
70.16589999	12.55127955	12.55184500	1	15	C
75.35895847	11.06001995	12.55802194	3	16	N
77.50138156	9.98091187	12.55816234	1	17	C
70.81376564	11.28521420	12.55286571	1	18	C
75.12533805	9.69576168	12.55751831	1	19	C
76.46403487	9.00439210	12.55770435	1	20	C
72.23833580	11.06372684	12.55658277	3	21	N
70.09430006	10.00101156	12.54931688	1	22	C
73.79504081	9.08586641	12.55620403	1	23	C
72.46653080	9.70808731	12.55496403	1	24	C
71.11708325	9.02525476	12.55071644	1	25	C
73.83086923	17.08169913	12.55510106	2	26	H
76.63295825	17.12415883	12.55736353	2	27	H
71.00927175	17.15810221	12.54864304	2	28	H
68.97282611	15.24903984	12.54658171	2	29	H
69.01309043	12.55323314	12.54871885	2	30	H
76.60074658	7.91902477	12.55736215	2	31	H
68.95556342	9.86615478	12.54584044	2	32	H
73.78949071	7.98785128	12.55523231	2	33	H
70.97365956	7.94084391	12.54862163	2	34	H
82.72173726	12.50383549	12.55788200	4	35	Zn
84.05670180	15.33110930	12.55765739	1	36	C
82.72812906	15.94567558	12.55769608	1	37	C
84.28524043	13.96460363	12.55782214	3	38	N
85.39368901	16.01768692	12.55749112	1	39	C
81.39596724	15.33553897	12.55791588	1	40	C
85.69864458	13.75478050	12.55775463	1	41	C
86.42818176	15.03631035	12.55757966	1	42	C
81.16264345	13.97153372	12.55803659	3	43	N
80.06127483	16.02711162	12.55801245	1	44	C
86.40899269	12.49838319	12.55779538	1	45	C
79.74717511	13.76604642	12.55824858	1	46	C
79.02289797	15.04980810	12.55821849	1	47	C
85.69556738	11.24328746	12.55772820	1	48	C
79.03279815	12.51390033	12.55835664	1	49	C
84.28125925	11.03804686	12.55775217	3	50	N
86.42140715	9.95936790	12.55751472	1	51	C
79.73992283	11.25767310	12.55817237	1	52	C
84.04643018	9.67283131	12.55753236	1	53	C
85.38203580	8.98170248	12.55737643	1	54	C
81.15471654	11.04533792	12.55792702	3	55	N
79.00876581	9.97729499	12.55809352	1	56	C
82.71316310	9.06526009	12.55749339	1	57	C
81.38243647	9.68065238	12.55770483	1	58	C
80.04333998	8.99530588	12.55777210	1	59	C
82.73042759	17.04379913	12.55755635	2	60	H
85.53300583	17.10265111	12.55735781	2	61	H
79.92646795	17.11252205	12.55793197	2	62	H
85.51753121	7.89623176	12.55717862	2	63	H
82.70962595	7.96700357	12.55729927	2	64	H
79.90419726	7.91030503	12.55759580	2	65	H
91.63417016	12.49533653	12.55785566	4	66	Zn
92.96340962	15.33113607	12.55748687	1	67	C
91.63339970	15.94288739	12.55735880	1	68	C
93.19140603	13.96482456	12.55781170	3	69	N
94.29913597	16.01835793	12.55728459	1	70	C
90.30408036	15.32864492	12.55750589	1	71	C
94.60519962	13.75555966	12.55779818	1	72	C
95.33469428	15.03732391	12.55749187	1	73	C
90.07602248	13.96239706	12.55774653	3	74	N
88.96851981	16.01589406	12.55739539	1	75	C
95.31646972	12.49833155	12.55790795	1	76	C
88.66170167	13.75314488	12.55775918	1	77	C
87.93318157	15.03493580	12.55756729	1	78	C
94.60543836	11.24083796	12.55780062	1	79	C
87.94908673	12.49718426	12.55781369	1	80	C
93.19166016	11.03070253	12.55782954	3	81	N
95.33475200	9.95930595	12.55748259	1	82	C
88.65808802	11.23967296	12.55776407	1	83	C
92.96272787	9.66446118	12.55750307	1	84	C
94.29920748	8.97789357	12.55727072	1	85	C
90.07210058	11.03017469	12.55778976	3	86	N
87.92788656	9.95814223	12.55752228	1	87	C
91.63201340	9.05223141	12.55740192	1	88	C
90.30079419	9.66426171	12.55752257	1	89	C
88.96419026	8.97727600	12.55733264	1	90	C
91.63204961	17.04107112	12.55707326	2	91	H
94.43682377	17.10346114	12.55700346	2	92	H
88.83035758	17.10105180	12.55721802	2	93	H
94.43826452	7.89290058	12.55699812	2	94	H
91.63264652	7.95397164	12.55715747	2	95	H
88.82638004	7.89217178	12.55707944	2	96	H
100.54317731	12.49878018	12.55807454	4	97	Zn
101.87406686	15.32788553	12.55724747	1	98	C
100.54323605	15.93967839	12.55701105	1	99	C
102.10507731	13.96170664	12.55780756	3	100	N
103.20900099	16.01681300	12.55687374	1	101	C
99.21193280	15.32882418	12.55730739	1	102	C
103.51850747	13.75500489	12.55774551	1	103	C
104.24648206	15.03725463	12.55723999	1	104	C
98.98081821	13.96277415	12.55778324	3	105	N
97.87674555	16.01763114	12.55709085	1	106	C
104.23068646	12.49883207	12.55788380	1	107	C
97.56723386	13.75535351	12.55781071	1	108	C
96.83983058	15.03749199	12.55745099	1	109	C
103.51882060	11.24236650	12.55771446	1	110	C
96.85517851	12.49879539	12.55793564	1	111	C
102.10539524	11.03512164	12.55771596	3	112	N
104.24726970	9.96027945	12.55717575	1	113	C
97.56742770	11.24240878	12.55781696	1	114	C
101.87475444	9.66897148	12.55714130	1	115	C
103.21004511	8.98033248	12.55673101	1	116	C
98.98109050	11.03517842	12.55778331	3	117	N
96.84014719	9.96008128	12.55746219	1	118	C
100.54362198	9.05779138	12.55696888	1	119	C
99.21246271	9.66913803	12.55730479	1	120	C
97.87739458	8.98034007	12.55710312	1	121	C
100.54366241	17.03796344	12.55649029	2	122	H
103.34511508	17.10207066	12.55634612	2	123	H
97.73946550	17.10291124	12.55672980	2	124	H
103.34661292	7.89510111	12.55619104	2	125	H
100.54318461	7.95954367	12.55651599	2	126	H
97.74020541	7.89511524	12.55670105	2	127	H
109.45717860	12.50119268	12.55791466	4	128	Zn
110.78925189	15.33018773	12.55734602	1	129	C
109.45665400	15.94031763	12.55699051	1	130	C
111.02158631	13.96465729	12.55779937	3	131	N
112.12502549	16.01974168	12.55718292	1	132	C
108.12489113	15.32932746	12.55717358	1	133	C
112.43506436	13.75816835	12.55786998	1	134	C
113.16307613	15.04049286	12.55753378	1	135	C
107.89296848	13.96315961	12.55778061	3	136	N
106.78896360	16.01787480	12.55681840	1	137	C
113.14609512	12.50223201	12.55794473	1	138	C
106.47997031	13.75571472	12.55773615	1	139	C
105.75189798	15.03782267	12.55721683	1	140	C
112.43453128	11.24622590	12.55780478	1	141	C
105.76836244	12.49924671	12.55789476	1	142	C
111.02122564	11.03847850	12.55771889	3	143	N
113.16229498	9.96418374	12.55739767	1	144	C
106.48028831	11.24302525	12.55775624	1	145	C
110.78965513	9.67259416	12.55718309	1	146	C
112.12536278	8.98411911	12.55695860	1	147	C
107.89339499	11.03685898	12.55776945	3	148	N
105.75281339	9.96039560	12.55722175	1	149	C
109.45808413	9.06087648	12.55686994	1	150	C
108.12606637	9.67085271	12.55715243	1	151	C
106.79082828	8.98122116	12.55680535	1	152	C
109.45635897	17.03870004	12.55650334	2	153	H
112.26222312	17.10507487	12.55682369	2	154	H
106.64993548	17.10291268	12.55631516	2	155	H
112.26434596	7.89912336	12.55646300	2	156	H
109.45955537	7.96247487	12.55629575	2	157	H
106.65388585	7.89598503	12.55623029	2	158	H
118.37119519	12.50003048	12.55780037	4	159	Zn
119.70606268	15.32563938	12.55768032	1	160	C
118.37506991	15.93977303	12.55736391	1	161	C
119.93598032	13.96096331	12.55789376	3	162	N
121.04364804	16.01314793	12.55778915	1	163	C
117.04323910	15.33006133	12.55748496	1	164	C
121.35067435	13.75120877	12.55810093	1	165	C
122.07902696	15.03255980	12.55810463	1	166	C
116.81091426	13.96430920	12.55778760	3	167	N
115.70716514	16.01964349	12.55732854	1	168	C
122.06007263	12.49662046	12.55812173	1	169	C
115.39726165	13.75779851	12.55776356	1	170	C
114.66921006	15.04078187	12.55752328	1	171	C
121.34889413	11.24300012	12.55809821	1	172	C
114.68523981	12.50211405	12.55786614	1	173	C
119.93376913	11.03553743	12.55786082	3	174	N
122.07543758	9.96034582	12.55805091	1	175	C
115.39656676	11.24619413	12.55773487	1	176	C
119.70222399	9.67099986	12.55757599	1	177	C
121.03842076	8.98138253	12.55767888	1	178	C
116.81002383	11.03845903	12.55776344	3	179	N
114.66769500	9.96390777	12.55739605	1	180	C
118.37034788	9.05950102	12.55723783	1	181	C
117.04056511	9.67242668	12.55738441	1	182	C
115.70437768	8.98426551	12.55714069	1	183	C
118.37662094	17.03802717	12.55690237	2	184	H
121.18276631	17.09827707	12.55746664	2	185	H
115.57121955	17.10494076	12.55711818	2	186	H
121.17485919	7.89604368	12.55729336	2	187	H
118.36818523	7.96122518	12.55675206	2	188	H
115.56828941	7.89922166	12.55685655	2	189	H
127.29565366	12.49454168	12.55722184	4	190	Zn
128.61533353	15.32814649	12.55717187	1	191	C
127.28428224	15.94357652	12.55765131	1	192	C
128.84609719	13.97262577	12.55766501	3	193	N
129.96186462	16.01549470	12.55523575	1	194	C
125.95910620	15.32508543	12.55812543	1	195	C
130.27191171	13.75704925	12.55576134	1	196	C
130.98753831	15.04276885	12.55434295	1	197	C
125.73217869	13.95914044	12.55793782	3	198	N
124.61883870	16.01187112	12.55840475	1	199	C
130.92277939	12.49311616	12.55507080	1	200	C
124.31684717	13.74879493	12.55795577	1	201	C
123.58573481	15.03189072	12.55817480	1	202	C
130.27022706	11.22998168	12.55551203	1	203	C
123.60604669	12.49546681	12.55795539	1	204	C
128.84398213	11.01561137	12.55745583	3	205	N
130.98427834	9.94328452	12.55395829	1	206	C
124.31461406	11.24117399	12.55793019	1	207	C
128.61159173	9.66026623	12.55673156	1	208	C
129.95752387	8.97166605	12.55475003	1	209	C
125.72964332	11.02962033	12.55786938	3	210	N
123.58210603	9.95863874	12.55811354	1	211	C
127.28038425	9.04495680	12.55726004	1	212	C
125.95530024	9.66365222	12.55797003	1	213	C
124.61450090	8.97794756	12.55830721	1	214	C
127.28146814	17.04135532	12.55712833	2	215	H
130.10022602	17.10043060	12.55460910	2	216	H
124.47995816	17.09701622	12.55899546	2	217	H
130.09543563	7.88650810	12.55413196	2	218	H
127.27819968	7.94709525	12.55662454	2	219	H
124.47520137	7.89312369	12.55887165	2	220	H
132.12611973	15.17911681	12.55256136	2	221	H
132.07548076	12.49213055	12.55359488	2	222	H
132.12243550	9.80385623	12.55233576	2	223	H
%endblock AtomicCoordinatesAndAtomicSpecies